88 32 96 19 76 55 80 52 41 11 91 85 62 77 61 29 76 17 46 42 31 78 90 98 23 
59 90 84 17 24 45 76 94 31 45 48 78 29 98 76 98 65 33 10 73 24 14 43 31 65 
39 76 24 92 71 53 12 28 31 92 78 25 66 13 78 69 98 11 51 77 37 99 33 38 91 
80 50 83 11 71 13 50 52 68 63 65 98 23 39 55 78 78 91 31 90 64 74 53 19 53 
726
72 99 10 11 77 69 42 14 96 54 23 38 90 47 32 18 29 16 29 48 22 41 37 48 77 
569
37 10 75 97 12 32 65 45 41 94 64 53 79 25 47 82 74 71 48 67 54 72 48 10 19 
660
